
Log started (V11.0.0) Sun Apr 20 00:02:32 2008

Tried aggregator 1 time.
Reduced MIP has 520 rows, 10001 columns, and 20020 nonzeros.
Presolve time =    0.06 sec.
Clique table members: 500.
MIP emphasis: balance optimality and feasibility.
MIP search method: dynamic search.
Parallel mode: none, using 1 thread.
Root relaxation solution time =    0.33 sec.

        Nodes                                         Cuts/
   Node  Left     Objective  IInf  Best Integer     Best Node    ItCnt     Gap

*     0+    0                        27051.0000      346.4552      687   98.72%
*     0+    0                          374.0000      346.4552      687    7.36%
      0     0      347.0000    39      374.0000      Fract: 8      702    7.22%
*     0+    0                          363.0000      347.0000      702    4.41%
*     0+    0                          355.0000      347.0000      702    2.25%
*     0+    0                          353.0000      347.0000      702    1.70%
      0     2      347.0000    39      353.0000      347.0000      702    1.70%
    100    90      350.0000    32      353.0000      347.0000     4656    1.70%
    200   171        cutoff            353.0000      347.0000     9780    1.70%
    300   247      351.0000    40      353.0000      347.0000    15702    1.70%
*   400+  222                          352.0000      347.0000    23833    1.42%
    400   221      352.0000    40      352.0000      347.0000    23833    1.42%
*   500+  201                          351.0000      347.0000    28520    1.14%
    500   203      349.0000    35      351.0000      347.0000    28520    1.14%
    600   288      350.0000    35      351.0000      347.0000    32533    1.14%
*   611+  198                          350.0000      347.0000    34208    0.86%
*   611+  132                          349.0000      347.0000    34208    0.57%
    700   127      348.0000    39      349.0000      347.0000    43253    0.57%
    800   135      348.0000    39      349.0000      347.0000    50053    0.57%
    900   206      348.0000    48      349.0000      347.0000    58682    0.57%
   1000   292      348.0000    35      349.0000      347.0000    62877    0.57%
Elapsed time =  56.11 sec. (tree size =  2.72 MB, solutions = 9)
   1100   384      348.0000    54      349.0000      347.0000    68838    0.57%
   1200   457      348.0000    51      349.0000      347.0000    76917    0.57%
   1300   547      348.0000    52      349.0000      347.0000    82152    0.57%
   1400   634      348.0000    32      349.0000      347.0000    86797    0.57%
   1500   700      348.0000    48      349.0000      347.0000    92458    0.57%
   1600   785      347.0000    58      349.0000      347.0000    97827    0.57%
   1700   860    infeasible            349.0000      347.0000   104559    0.57%
   1800   941      348.0000    40      349.0000      347.0000   109203    0.57%
   1900  1028      348.0000    52      349.0000      347.0000   115920    0.57%
   2000  1121      347.0057    85      349.0000      347.0000   120304    0.57%
Elapsed time =  90.97 sec. (tree size = 12.87 MB, solutions = 9)
   2100  1213      348.0000    42      349.0000      347.0000   125101    0.57%
   2200  1305      347.0000    58      349.0000      347.0000   131946    0.57%
   2300  1402      348.0000    44      349.0000      347.0000   136974    0.57%
   2400  1495      348.0000    51      349.0000      347.0000   142117    0.57%
   2500  1581      348.0000    48      349.0000      347.0000   148570    0.57%
   2600  1668      348.0000    61      349.0000      347.0000   154684    0.57%
   2700  1748      348.0000    34      349.0000      347.0000   162611    0.57%
   2800  1838      348.0000    86      349.0000      347.0000   167972    0.57%
   2900  1938      348.0000    70      349.0000      347.0000   173883    0.57%
   3000  2031      348.0000    54      349.0000      347.0000   179145    0.57%
Elapsed time = 130.58 sec. (tree size = 25.32 MB, solutions = 9)
   3100  2112      348.0000    52      349.0000      347.0000   187338    0.57%
   3200  2198      348.0000   101      349.0000      347.0000   194426    0.57%
   3300  2287      348.0000    58      349.0000      347.0000   200983    0.57%
   3400  2380      348.0000    62      349.0000      347.0000   207261    0.57%
   3500  2471      348.0000    76      349.0000      347.0000   216284    0.57%
*  3511+  248                          348.0000      347.0000   216930    0.29%
   3600   320      347.0000    75      348.0000      347.0000   231405    0.29%
   3700   372      347.0002   107      348.0000      347.0000   264067    0.29%
   3800   434    infeasible            348.0000      347.0000   284616    0.29%
   3900   454      347.0000   122      348.0000      347.0000   329563    0.29%
   4000   522      347.0000    83      348.0000      347.0000   351538    0.29%
Elapsed time = 271.22 sec. (tree size =  7.62 MB, solutions = 10)
   4100   576    infeasible            348.0000      347.0000   377023    0.29%
   4200   588    infeasible            348.0000      347.0000   428468    0.29%
   4300   588      347.0000   119      348.0000      347.0000   503509    0.29%
   4400   634      347.0000   133      348.0000      347.0000   541917    0.29%
   4500   662    infeasible            348.0000      347.0000   587257    0.29%
   4600   684      347.0000   158      348.0000      347.0000   645471    0.29%
   4700   724      347.0000   146      348.0000      347.0000   688437    0.29%
   4800   756      347.0000   153      348.0000      347.0000   733680    0.29%
   4900   796      347.0000   128      348.0000      347.0000   774556    0.29%
   5000   852      347.0000   179      348.0000      347.0000   808529    0.29%
Elapsed time = 775.25 sec. (tree size = 15.35 MB, solutions = 10)
   5100   882      347.0000   167      348.0000      347.0000   865782    0.29%
   5200   912      347.0000   147      348.0000      347.0000   915336    0.29%
   5300   952    infeasible            348.0000      347.0000   971431    0.29%
   5400  1000      347.0000   141      348.0000      347.0000  1016630    0.29%
   5500  1024      347.0000   142      348.0000      347.0000  1079636    0.29%
   5600  1034    infeasible            348.0000      347.0000  1146252    0.29%
   5700  1050    infeasible            348.0000      347.0000  1218719    0.29%
   5800  1112      347.0000   148      348.0000      347.0000  1244006    0.29%
   5900  1156      347.0000   144      348.0000      347.0000  1282662    0.29%
   6000  1216    infeasible            348.0000      347.0000  1315013    0.29%
Elapsed time = 1351.95 sec. (tree size = 24.67 MB, solutions = 10)
   6100  1262      347.0000   157      348.0000      347.0000  1355809    0.29%
   6200  1314      347.0000   143      348.0000      347.0000  1393874    0.29%
   6300  1348      347.0000   183      348.0000      347.0000  1435506    0.29%
   6400  1392    infeasible            348.0000      347.0000  1480055    0.29%
   6500  1408      347.0000   193      348.0000      347.0000  1533693    0.29%
   6600  1424      347.0000   148      348.0000      347.0000  1590642    0.29%
   6700  1434    infeasible            348.0000      347.0000  1654049    0.29%
   6800  1434    infeasible            348.0000      347.0000  1718581    0.29%
   6900  1438      347.0000   207      348.0000      347.0000  1789541    0.29%
   7000  1454    infeasible            348.0000      347.0000  1843087    0.29%
Elapsed time = 2039.48 sec. (tree size = 31.83 MB, solutions = 10)
   7100  1484      347.0000   168      348.0000      347.0000  1897003    0.29%
   7200  1514    infeasible            348.0000      347.0000  1948532    0.29%
   7300  1536      347.0000   180      348.0000      347.0000  2007139    0.29%
   7400  1570      347.0000   182      348.0000      347.0000  2061180    0.29%
   7500  1596      347.0000   165      348.0000      347.0000  2121164    0.29%
   7600  1622      347.0000   150      348.0000      347.0000  2177431    0.29%
   7700  1654      347.0000   182      348.0000      347.0000  2229889    0.29%
   7800  1656    infeasible            348.0000      347.0000  2297624    0.29%
   7900  1680      347.0000   192      348.0000      347.0000  2350462    0.29%
   8000  1726    infeasible            348.0000      347.0000  2396060    0.29%
Elapsed time = 2795.88 sec. (tree size = 40.48 MB, solutions = 10)
   8100  1766      347.0000   186      348.0000      347.0000  2437683    0.29%
   8200  1772    infeasible            348.0000      347.0000  2502308    0.29%
   8300  1780      347.0000   184      348.0000      347.0000  2572984    0.29%
   8400  1788      347.0000   202      348.0000      347.0000  2636563    0.29%
   8500  1792    infeasible            348.0000      347.0000  2707881    0.29%
   8600  1764    infeasible            348.0000      347.0000  2798795    0.29%
   8700  1790      347.0000   176      348.0000      347.0000  2859321    0.29%
   8800  1794      347.0000   200      348.0000      347.0000  2936524    0.29%
   8900  1832      347.0000   189      348.0000      347.0000  2985548    0.29%
   9000  1834      347.0000   193      348.0000      347.0000  3064600    0.29%
Elapsed time = 3661.92 sec. (tree size = 45.51 MB, solutions = 10)
   9100  1848    infeasible            348.0000      347.0000  3130627    0.29%
   9200  1870    infeasible            348.0000      347.0000  3190720    0.29%
   9300  1876    infeasible            348.0000      347.0000  3258734    0.29%
   9400  1902      347.0000   197      348.0000      347.0000  3330330    0.29%
   9500  1890    infeasible            348.0000      347.0000  3418908    0.29%
   9600  1894      347.0000   183      348.0000      347.0000  3494851    0.29%
   9700  1908    infeasible            348.0000      347.0000  3556150    0.29%
   9800  1924      347.0000   174      348.0000      347.0000  3622540    0.29%
   9900  1916      347.0000   265      348.0000      347.0000  3710340    0.29%
  10000  1936    infeasible            348.0000      347.0000  3771483    0.29%
Elapsed time = 4610.23 sec. (tree size = 50.72 MB, solutions = 10)
  10100  1944    infeasible            348.0000      347.0000  3837091    0.29%
  10200  1964      347.0000   212      348.0000      347.0000  3898628    0.29%
  10300  1952    infeasible            348.0000      347.0000  3983373    0.29%
  10400  1972      347.0000   174      348.0000      347.0000  4043835    0.29%
  10500  1990    infeasible            348.0000      347.0000  4100972    0.29%
  10600  2016    infeasible            348.0000      347.0000  4158975    0.29%
  10700  2024      347.0000   208      348.0000      347.0000  4225713    0.29%
  10800  2036      347.0000   216      348.0000      347.0000  4288283    0.29%
  10900  2068    infeasible            348.0000      347.0000  4355200    0.29%
  11000  2054      347.0000   205      348.0000      347.0000  4453272    0.29%
Elapsed time = 5558.38 sec. (tree size = 56.37 MB, solutions = 10)
  11100  2074      347.0000   181      348.0000      347.0000  4515297    0.29%
  11200  2076      347.0000   197      348.0000      347.0000  4594466    0.29%
  11300  2086      347.0000   167      348.0000      347.0000  4664597    0.29%
  11400  2134    infeasible            348.0000      347.0000  4707560    0.29%
  11500  2156    infeasible            348.0000      347.0000  4775010    0.29%
  11600  2136    infeasible            348.0000      347.0000  4874724    0.29%
  11700  2134      347.0000   189      348.0000      347.0000  4950240    0.29%
  11800  2134    infeasible            348.0000      347.0000  5036263    0.29%
  11900  2164      347.0000   193      348.0000      347.0000  5090515    0.29%
  12000  2184    infeasible            348.0000      347.0000  5154595    0.29%
Elapsed time = 6571.86 sec. (tree size = 62.36 MB, solutions = 10)
  12100  2192      347.0000   202      348.0000      347.0000  5222530    0.29%
  12200  2158    infeasible            348.0000      347.0000  5333568    0.29%
  12300  2152      347.0000   203      348.0000      347.0000  5435964    0.29%
  12400  2146    infeasible            348.0000      347.0000  5514276    0.29%
  12500  2168    infeasible            348.0000      347.0000  5580284    0.29%

Cover cuts applied:  2111
Gomory fractional cuts applied:  3

Solution pool: 10 solutions saved.

MIP - Time limit exceeded, integer feasible:  Objective = 3.4800000000e+002
Current MIP best bound = 3.4700000000e+002 (gap = 1, 0.29%)
Solution time = 7200.03 sec.  Iterations = 5589316  Nodes = 12510 (2165)


Incumbent solution
Variable Name           Solution Value
Cmax                        348.000000
X_1_12                        1.000000
X_2_16                        1.000000
X_3_10                        1.000000
X_4_8                         1.000000
X_5_5                         1.000000
X_6_15                        1.000000
X_7_4                         1.000000
X_8_5                         1.000000
X_9_19                        1.000000
X_10_5                        1.000000
X_11_15                       1.000000
X_12_15                       1.000000
X_13_16                       1.000000
X_14_20                       1.000000
X_15_9                        1.000000
X_16_12                       1.000000
X_17_1                        1.000000
X_18_9                        1.000000
X_19_14                       1.000000
X_20_10                       1.000000
X_21_11                       1.000000
X_22_12                       1.000000
X_23_9                        1.000000
X_24_9                        1.000000
X_25_2                        1.000000
X_26_3                        1.000000
X_27_13                       1.000000
X_28_17                       1.000000
X_29_3                        1.000000
X_30_2                        1.000000
X_31_16                       1.000000
X_32_15                       1.000000
X_33_16                       1.000000
X_34_10                       1.000000
X_35_3                        1.000000
X_36_4                        1.000000
X_37_6                        1.000000
X_38_10                       1.000000
X_39_11                       1.000000
X_40_7                        1.000000
X_41_6                        1.000000
X_42_4                        1.000000
X_43_13                       1.000000
X_44_14                       1.000000
X_45_1                        1.000000
X_46_11                       1.000000
X_47_3                        1.000000
X_48_15                       1.000000
X_49_16                       1.000000
X_50_11                       1.000000
X_51_7                        1.000000
X_52_2                        1.000000
X_53_8                        1.000000
X_54_10                       1.000000
X_55_14                       1.000000
X_56_6                        1.000000
X_57_17                       1.000000
X_58_17                       1.000000
X_59_3                        1.000000
X_60_18                       1.000000
X_61_7                        1.000000
X_62_16                       1.000000
X_63_19                       1.000000
X_64_2                        1.000000
X_65_6                        1.000000
X_66_6                        1.000000
X_67_7                        1.000000
X_68_13                       1.000000
X_69_1                        1.000000
X_70_7                        1.000000
X_71_14                       1.000000
X_72_4                        1.000000
X_73_16                       1.000000
X_74_1                        1.000000
X_75_2                        1.000000
X_76_9                        1.000000
X_77_8                        1.000000
X_78_1                        1.000000
X_79_12                       1.000000
X_80_4                        1.000000
X_81_5                        1.000000
X_82_10                       1.000000
X_83_18                       1.000000
X_84_8                        1.000000
X_85_5                        1.000000
X_86_7                        1.000000
X_87_10                       1.000000
X_88_2                        1.000000
X_89_16                       1.000000
X_90_15                       1.000000
X_91_20                       1.000000
X_92_4                        1.000000
X_93_13                       1.000000
X_94_20                       1.000000
X_95_20                       1.000000
X_96_6                        1.000000
X_97_20                       1.000000
X_98_5                        1.000000
X_99_18                       1.000000
X_100_10                      1.000000
X_101_1                       1.000000
X_102_9                       1.000000
X_103_8                       1.000000
X_104_10                      1.000000
X_105_19                      1.000000
X_106_17                      1.000000
X_107_8                       1.000000
X_108_20                      1.000000
X_109_12                      1.000000
X_110_15                      1.000000
X_111_4                       1.000000
X_112_17                      1.000000
X_113_3                       1.000000
X_114_9                       1.000000
X_115_3                       1.000000
X_116_7                       1.000000
X_117_17                      1.000000
X_118_15                      1.000000
X_119_14                      1.000000
X_120_12                      1.000000
X_121_17                      1.000000
X_122_13                      1.000000
X_123_7                       1.000000
X_124_2                       1.000000
X_125_10                      1.000000
X_126_6                       1.000000
X_127_17                      1.000000
X_128_2                       1.000000
X_129_20                      1.000000
X_130_17                      1.000000
X_131_17                      1.000000
X_132_18                      1.000000
X_133_14                      1.000000
X_134_18                      1.000000
X_135_3                       1.000000
X_136_19                      1.000000
X_137_1                       1.000000
X_138_13                      1.000000
X_139_16                      1.000000
X_140_6                       1.000000
X_141_18                      1.000000
X_142_11                      1.000000
X_143_5                       1.000000
X_144_6                       1.000000
X_145_9                       1.000000
X_146_11                      1.000000
X_147_7                       1.000000
X_148_19                      1.000000
X_149_8                       1.000000
X_150_2                       1.000000
X_151_19                      1.000000
X_152_16                      1.000000
X_153_10                      1.000000
X_154_8                       1.000000
X_155_11                      1.000000
X_156_9                       1.000000
X_157_3                       1.000000
X_158_4                       1.000000
X_159_12                      1.000000
X_160_4                       1.000000
X_161_13                      1.000000
X_162_13                      1.000000
X_163_15                      1.000000
X_164_15                      1.000000
X_165_14                      1.000000
X_166_5                       1.000000
X_167_11                      1.000000
X_168_17                      1.000000
X_169_4                       1.000000
X_170_16                      1.000000
X_171_9                       1.000000
X_172_10                      1.000000
X_173_7                       1.000000
X_174_2                       1.000000
X_175_3                       1.000000
X_176_7                       1.000000
X_177_9                       1.000000
X_178_13                      1.000000
X_179_17                      1.000000
X_180_1                       1.000000
X_181_17                      1.000000
X_182_4                       1.000000
X_183_1                       1.000000
X_184_14                      1.000000
X_185_12                      1.000000
X_186_18                      1.000000
X_187_2                       1.000000
X_188_18                      1.000000
X_189_7                       1.000000
X_190_6                       1.000000
X_191_18                      1.000000
X_192_20                      1.000000
X_193_1                       1.000000
X_194_20                      1.000000
X_195_3                       1.000000
X_196_8                       1.000000
X_197_9                       1.000000
X_198_9                       1.000000
X_199_3                       1.000000
X_200_7                       1.000000
X_201_7                       1.000000
X_202_10                      1.000000
X_203_15                      1.000000
X_204_15                      1.000000
X_205_17                      1.000000
X_206_6                       1.000000
X_207_5                       1.000000
X_208_8                       1.000000
X_209_1                       1.000000
X_210_12                      1.000000
X_211_5                       1.000000
X_212_6                       1.000000
X_213_12                      1.000000
X_214_8                       1.000000
X_215_14                      1.000000
X_216_10                      1.000000
X_217_3                       1.000000
X_218_8                       1.000000
X_219_7                       1.000000
X_220_7                       1.000000
X_221_17                      1.000000
X_222_2                       1.000000
X_223_11                      1.000000
X_224_2                       1.000000
X_225_20                      1.000000
X_226_3                       1.000000
X_227_14                      1.000000
X_228_1                       1.000000
X_229_4                       1.000000
X_230_18                      1.000000
X_231_16                      1.000000
X_232_1                       1.000000
X_233_13                      1.000000
X_234_1                       1.000000
X_235_2                       1.000000
X_236_1                       1.000000
X_237_20                      1.000000
X_238_6                       1.000000
X_239_7                       1.000000
X_240_7                       1.000000
X_241_6                       1.000000
X_242_20                      1.000000
X_243_9                       1.000000
X_244_7                       1.000000
X_245_12                      1.000000
X_246_18                      1.000000
X_247_12                      1.000000
X_248_3                       1.000000
X_249_5                       1.000000
X_250_7                       1.000000
X_251_4                       1.000000
X_252_9                       1.000000
X_253_13                      1.000000
X_254_5                       1.000000
X_255_9                       1.000000
X_256_14                      1.000000
X_257_9                       1.000000
X_258_17                      1.000000
X_259_20                      1.000000
X_260_14                      1.000000
X_261_13                      1.000000
X_262_12                      1.000000
X_263_16                      1.000000
X_264_2                       1.000000
X_265_17                      1.000000
X_266_4                       1.000000
X_267_11                      1.000000
X_268_18                      1.000000
X_269_19                      1.000000
X_270_18                      1.000000
X_271_3                       1.000000
X_272_14                      1.000000
X_273_17                      1.000000
X_274_19                      1.000000
X_275_2                       1.000000
X_276_1                       1.000000
X_277_11                      1.000000
X_278_14                      1.000000
X_279_19                      1.000000
X_280_12                      1.000000
X_281_15                      1.000000
X_282_6                       1.000000
X_283_3                       1.000000
X_284_6                       1.000000
X_285_5                       1.000000
X_286_2                       1.000000
X_287_14                      1.000000
X_288_13                      1.000000
X_289_4                       1.000000
X_290_1                       1.000000
X_291_16                      1.000000
X_292_13                      1.000000
X_293_13                      1.000000
X_294_8                       1.000000
X_295_15                      1.000000
X_296_18                      1.000000
X_297_14                      1.000000
X_298_17                      1.000000
X_299_4                       1.000000
X_300_11                      1.000000
X_301_7                       1.000000
X_302_14                      1.000000
X_303_5                       1.000000
X_304_20                      1.000000
X_305_3                       1.000000
X_306_8                       1.000000
X_307_14                      1.000000
X_308_19                      1.000000
X_309_18                      1.000000
X_310_4                       1.000000
X_311_18                      1.000000
X_312_16                      1.000000
X_313_15                      1.000000
X_314_20                      1.000000
X_315_4                       1.000000
X_316_13                      1.000000
X_317_17                      1.000000
X_318_4                       1.000000
X_319_8                       1.000000
X_320_2                       1.000000
X_321_16                      1.000000
X_322_16                      1.000000
X_323_2                       1.000000
X_324_15                      1.000000
X_325_1                       1.000000
X_326_2                       1.000000
X_327_11                      1.000000
X_328_8                       1.000000
X_329_4                       1.000000
X_330_19                      1.000000
X_331_8                       1.000000
X_332_13                      1.000000
X_333_16                      1.000000
X_334_12                      1.000000
X_335_7                       1.000000
X_336_10                      1.000000
X_337_8                       1.000000
X_338_19                      1.000000
X_339_15                      1.000000
X_340_19                      1.000000
X_341_5                       1.000000
X_342_11                      1.000000
X_343_3                       1.000000
X_344_16                      1.000000
X_345_12                      1.000000
X_346_2                       1.000000
X_347_20                      1.000000
X_348_9                       1.000000
X_349_17                      1.000000
X_350_7                       1.000000
X_351_5                       1.000000
X_352_13                      1.000000
X_353_12                      1.000000
X_354_4                       1.000000
X_355_17                      1.000000
X_356_7                       1.000000
X_357_19                      1.000000
X_358_19                      1.000000
X_359_1                       1.000000
X_360_9                       1.000000
X_361_4                       1.000000
X_362_3                       1.000000
X_363_9                       1.000000
X_364_11                      1.000000
X_365_11                      1.000000
X_366_16                      1.000000
X_367_2                       1.000000
X_368_4                       1.000000
X_369_13                      1.000000
X_370_10                      1.000000
X_371_6                       1.000000
X_372_3                       1.000000
X_373_10                      1.000000
X_374_9                       1.000000
X_375_2                       1.000000
X_376_18                      1.000000
X_377_11                      1.000000
X_378_15                      1.000000
X_379_14                      1.000000
X_380_9                       1.000000
X_381_19                      1.000000
X_382_14                      1.000000
X_383_5                       1.000000
X_384_11                      1.000000
X_385_14                      1.000000
X_386_9                       1.000000
X_387_6                       1.000000
X_388_20                      1.000000
X_389_8                       1.000000
X_390_16                      1.000000
X_391_10                      1.000000
X_392_15                      1.000000
X_393_16                      1.000000
X_394_2                       1.000000
X_395_18                      1.000000
X_396_19                      1.000000
X_397_10                      1.000000
X_398_3                       1.000000
X_399_12                      1.000000
X_400_10                      1.000000
X_401_5                       1.000000
X_402_8                       1.000000
X_403_17                      1.000000
X_404_18                      1.000000
X_405_12                      1.000000
X_406_1                       1.000000
X_407_13                      1.000000
X_408_5                       1.000000
X_409_6                       1.000000
X_410_19                      1.000000
X_411_12                      1.000000
X_412_8                       1.000000
X_413_12                      1.000000
X_414_1                       1.000000
X_415_20                      1.000000
X_416_13                      1.000000
X_417_10                      1.000000
X_418_12                      1.000000
X_419_11                      1.000000
X_420_1                       1.000000
X_421_15                      1.000000
X_422_11                      1.000000
X_423_8                       1.000000
X_424_4                       1.000000
X_425_4                       1.000000
X_426_13                      1.000000
X_427_12                      1.000000
X_428_11                      1.000000
X_429_6                       1.000000
X_430_18                      1.000000
X_431_19                      1.000000
X_432_14                      1.000000
X_433_9                       1.000000
X_434_15                      1.000000
X_435_11                      1.000000
X_436_15                      1.000000
X_437_6                       1.000000
X_438_15                      1.000000
X_439_20                      1.000000
X_440_10                      1.000000
X_441_14                      1.000000
X_442_16                      1.000000
X_443_3                       1.000000
X_444_11                      1.000000
X_445_6                       1.000000
X_446_9                       1.000000
X_447_1                       1.000000
X_448_8                       1.000000
X_449_11                      1.000000
X_450_14                      1.000000
X_451_18                      1.000000
X_452_19                      1.000000
X_453_5                       1.000000
X_454_10                      1.000000
X_455_15                      1.000000
X_456_13                      1.000000
X_457_13                      1.000000
X_458_7                       1.000000
X_459_12                      1.000000
X_460_18                      1.000000
X_461_17                      1.000000
X_462_20                      1.000000
X_463_13                      1.000000
X_464_1                       1.000000
X_465_19                      1.000000
X_466_5                       1.000000
X_467_3                       1.000000
X_468_13                      1.000000
X_469_11                      1.000000
X_470_8                       1.000000
X_471_5                       1.000000
X_472_20                      1.000000
X_473_4                       1.000000
X_474_20                      1.000000
X_475_20                      1.000000
X_476_7                       1.000000
X_477_19                      1.000000
X_478_6                       1.000000
X_479_5                       1.000000
X_480_15                      1.000000
X_481_16                      1.000000
X_482_17                      1.000000
X_483_8                       1.000000
X_484_13                      1.000000
X_485_1                       1.000000
X_486_12                      1.000000
X_487_20                      1.000000
X_488_19                      1.000000
X_489_2                       1.000000
X_490_4                       1.000000
X_491_12                      1.000000
X_492_3                       1.000000
X_493_18                      1.000000
X_494_12                      1.000000
X_495_10                      1.000000
X_496_19                      1.000000
X_497_10                      1.000000
X_498_14                      1.000000
X_499_20                      1.000000
X_500_5                       1.000000
All other variables in the range 1-10001 are 0.
